peakDumbCharging = 25900; 
Machine = anon_enum(16); 
machineSpeed = [3700,3700,3700,3700,3700,3700,3700,3700,3700,3700,3700,3700,3700,3700,3700,3700]; 
machineLoad = [3700,3700,3700,3700,3700,3700,3700,3700,3700,3700,3700,3700,3700,3700,3700,3700]; 
Car = anon_enum(43); 
demandCar = [5360,7840,7000,24760,10640,3240,14440,17920,10360,12800,15200,2000,2400,2320,9120,6960,10000,2440,2120,12200,6360,15120,5520,4120,8800,2600,2360,22080,4200,13240,10520,4840,10080,5720,4160,4520,11400,9960,10920,2640,10360,13280,16240]; 
arrivalCar = [71,67,67,66,65,63,62,62,60,59,59,58,58,58,58,56,56,55,52,51,49,49,49,48,47,47,47,46,45,44,43,43,42,40,40,40,40,38,37,36,35,35,33]; 
departureCar = [74,72,70,74,71,66,69,70,66,64,65,61,62,61,62,59,60,57,53,56,53,54,52,52,52,49,49,58,47,49,49,47,46,44,43,44,52,43,43,51,40,43,39]; 
